Generated by VASPKIT code
   1.00000000000000
     3.2541387307154510   -7.2359694091154028    0.0000000000000000
     3.2541387307154510    7.2359694091154028    0.0000000000000000
     0.0000000000000000    0.0000000000000000    6.2002523037130919
   K    As   Pt
     4     4     2
Direct
  0.5785675469572951  0.4214324530427049  0.2500000000000000
  0.4214324530427049  0.5785675469572951  0.7500000000000000
  0.2039437120527836  0.7960562879472164  0.2500000000000000
  0.7960562879472164  0.2039437120527836  0.7500000000000000
  0.0791516593702752  0.2984377256043231  0.2500000000000000
  0.2984377256043231  0.0791516593702752  0.7500000000000000
  0.9208483406297248  0.7015622743956769  0.7500000000000000
  0.7015622743956769  0.9208483406297248  0.2500000000000000
  0.0000000000000000  0.0000000000000000  0.0000000000000000
  0.0000000000000000  0.0000000000000000  0.5000000000000000
