ATOMIC_SPECIES
K 1 
As 1 
Pt 1 

LATTICE_CONSTANT
1.8897261246257702

LATTICE_VECTORS
3.254138730715451 -7.235969409115403 0.0 
3.254138730715451 7.235969409115403 0.0 
0.0 0.0 6.200252303713092 

ATOMIC_POSITIONS
Cartesian    # Cartesian(Unit is LATTICE_CONSTANT)
K
0.0
4
3.254138730715 -1.137024732664 1.550063075928 1 1 1
3.254138730715 1.137024732664 4.650189227785 1 1 1
3.254138730715 4.284508485925 1.550063075928 1 1 1
3.254138730715 -4.284508485925 4.650189227785 1 1 1
As
0.0
4
1.228728241953 1.586747267115 1.550063075928 1 1 1
1.228728241953 -1.586747267115 4.650189227785 1 1 1
5.279549219478 -1.586747267115 4.650189227785 1 1 1
5.279549219478 1.586747267115 1.550063075928 1 1 1
Pt
0.0
2
0.000000000000 0.000000000000 0.000000000000 1 1 1
0.000000000000 0.000000000000 3.100126151857 1 1 1
