Band path generated by dftkit (line_density=50)
50
Line-Mode
Reciprocal
 0.00000000  0.00000000  0.00000000 ! GAMMA
-0.50000000  0.50000000  0.00000000 ! Y

-0.50000000  0.50000000  0.00000000 ! Y
-0.30056135  0.69943865  0.00000000 ! C_0

 0.30056135  0.30056135  0.00000000 ! SIGMA_0
 0.00000000  0.00000000  0.00000000 ! GAMMA

 0.00000000  0.00000000  0.00000000 ! GAMMA
 0.00000000  0.00000000  0.50000000 ! Z

 0.00000000  0.00000000  0.50000000 ! Z
 0.30056135  0.30056135  0.50000000 ! A_0

-0.30056135  0.69943865  0.50000000 ! E_0
-0.50000000  0.50000000  0.50000000 ! T

-0.50000000  0.50000000  0.50000000 ! T
-0.50000000  0.50000000  0.00000000 ! Y

 0.00000000  0.00000000  0.00000000 ! GAMMA
 0.00000000  0.50000000  0.00000000 ! S

 0.00000000  0.50000000  0.00000000 ! S
 0.00000000  0.50000000  0.50000000 ! R

 0.00000000  0.50000000  0.50000000 ! R
 0.00000000  0.00000000  0.50000000 ! Z

 0.00000000  0.00000000  0.50000000 ! Z
-0.50000000  0.50000000  0.50000000 ! T
