As K  Pt
 1.0000000000000000
     6.5082774614309020  -14.4719388182308055    0.0000000000000000
     6.5082774614309020   14.4719388182308055    0.0000000000000000
     0.0000000000000000    0.0000000000000000   18.6007569111392748
 As  K   Pt 
  48  48  24
Direct
  0.5395758296851373  0.6492188628021615  0.7500000000000001
  0.6492188628021616  0.5395758296851376  0.5833333333333334
  0.6492188628021616  0.5395758296851376  0.2500000000000000
  0.6492188628021616  0.0395758296851377  0.9166666666666666
  0.6492188628021616  0.0395758296851377  0.5833333333333334
  0.6492188628021616  0.0395758296851377  0.2500000000000000
  0.1492188628021615  0.5395758296851376  0.9166666666666666
  0.1492188628021615  0.5395758296851376  0.5833333333333334
  0.1492188628021615  0.5395758296851376  0.2500000000000000
  0.1492188628021615  0.0395758296851376  0.9166666666666666
  0.6492188628021616  0.5395758296851376  0.9166666666666666
  0.1492188628021615  0.0395758296851376  0.5833333333333334
  0.5395758296851373  0.6492188628021615  0.4166666666666667
  0.5395758296851373  0.6492188628021615  0.0833333333333333
  0.5395758296851376  0.1492188628021616  0.7500000000000001
  0.5395758296851376  0.1492188628021616  0.4166666666666667
  0.5395758296851376  0.1492188628021616  0.0833333333333333
  0.0395758296851375  0.6492188628021615  0.7500000000000001
  0.0395758296851375  0.6492188628021615  0.4166666666666667
  0.0395758296851375  0.6492188628021615  0.0833333333333333
  0.0395758296851376  0.1492188628021615  0.7500000000000001
  0.1492188628021615  0.0395758296851376  0.2500000000000000
  0.4604241703148622  0.3507811371978384  0.2500000000000000
  0.4604241703148622  0.3507811371978384  0.5833333333333334
  0.4604241703148622  0.3507811371978384  0.9166666666666666
  0.8507811371978381  0.9604241703148623  0.7500000000000001
  0.8507811371978381  0.9604241703148623  0.4166666666666667
  0.8507811371978381  0.9604241703148623  0.0833333333333333
  0.8507811371978382  0.4604241703148623  0.7500000000000001
  0.8507811371978382  0.4604241703148623  0.4166666666666667
  0.8507811371978382  0.4604241703148623  0.0833333333333333
  0.3507811371978380  0.9604241703148622  0.7500000000000001
  0.3507811371978380  0.9604241703148622  0.4166666666666667
  0.3507811371978380  0.9604241703148622  0.0833333333333333
  0.3507811371978384  0.4604241703148624  0.7500000000000001
  0.3507811371978384  0.4604241703148624  0.4166666666666667
  0.3507811371978384  0.4604241703148624  0.0833333333333333
  0.9604241703148622  0.8507811371978382  0.9166666666666666
  0.9604241703148622  0.8507811371978382  0.5833333333333334
  0.9604241703148622  0.8507811371978382  0.2500000000000000
  0.9604241703148623  0.3507811371978384  0.9166666666666666
  0.9604241703148623  0.3507811371978384  0.5833333333333334
  0.9604241703148623  0.3507811371978384  0.2500000000000000
  0.4604241703148620  0.8507811371978382  0.9166666666666666
  0.4604241703148620  0.8507811371978382  0.5833333333333334
  0.4604241703148620  0.8507811371978382  0.2500000000000000
  0.0395758296851376  0.1492188628021615  0.4166666666666667
  0.0395758296851376  0.1492188628021615  0.0833333333333333
  0.2892837734786474  0.2107162265213525  0.0833333333333333
  0.8980281439736081  0.6019718560263919  0.5833333333333334
  0.7107162265213525  0.7892837734786476  0.2500000000000000
  0.7107162265213525  0.2892837734786476  0.9166666666666666
  0.7107162265213525  0.2892837734786476  0.5833333333333334
  0.7107162265213525  0.2892837734786476  0.2500000000000000
  0.2107162265213522  0.7892837734786474  0.9166666666666666
  0.2107162265213522  0.7892837734786474  0.5833333333333334
  0.2107162265213522  0.7892837734786474  0.2500000000000000
  0.2107162265213524  0.2892837734786475  0.9166666666666666
  0.2107162265213524  0.2892837734786475  0.5833333333333334
  0.8980281439736081  0.6019718560263919  0.9166666666666666
  0.7892837734786475  0.7107162265213525  0.7500000000000001
  0.7892837734786475  0.7107162265213525  0.4166666666666667
  0.7892837734786475  0.7107162265213525  0.0833333333333333
  0.7892837734786475  0.2107162265213526  0.7500000000000001
  0.7892837734786475  0.2107162265213526  0.4166666666666667
  0.7892837734786475  0.2107162265213526  0.0833333333333333
  0.2892837734786475  0.7107162265213525  0.7500000000000001
  0.2892837734786475  0.7107162265213525  0.4166666666666667
  0.2892837734786475  0.7107162265213525  0.0833333333333333
  0.2892837734786474  0.2107162265213525  0.7500000000000001
  0.2892837734786474  0.2107162265213525  0.4166666666666667
  0.7107162265213525  0.7892837734786476  0.5833333333333334
  0.7107162265213525  0.7892837734786476  0.9166666666666666
  0.2107162265213524  0.2892837734786475  0.2500000000000000
  0.1019718560263918  0.3980281439736082  0.4166666666666667
  0.1019718560263918  0.3980281439736082  0.0833333333333333
  0.8980281439736081  0.6019718560263919  0.2500000000000000
  0.8980281439736081  0.1019718560263919  0.9166666666666666
  0.8980281439736081  0.1019718560263919  0.5833333333333334
  0.8980281439736081  0.1019718560263919  0.2500000000000000
  0.3980281439736081  0.6019718560263918  0.9166666666666666
  0.3980281439736081  0.6019718560263918  0.2500000000000000
  0.3980281439736081  0.1019718560263919  0.9166666666666666
  0.3980281439736081  0.1019718560263919  0.5833333333333334
  0.3980281439736081  0.1019718560263919  0.2500000000000000
  0.3980281439736081  0.6019718560263918  0.5833333333333334
  0.1019718560263918  0.3980281439736082  0.7500000000000001
  0.6019718560263915  0.8980281439736081  0.4166666666666667
  0.6019718560263915  0.8980281439736081  0.0833333333333333
  0.6019718560263916  0.3980281439736082  0.7500000000000001
  0.6019718560263916  0.3980281439736082  0.4166666666666667
  0.6019718560263916  0.3980281439736082  0.0833333333333333
  0.1019718560263915  0.8980281439736080  0.7500000000000001
  0.1019718560263915  0.8980281439736080  0.4166666666666667
  0.1019718560263915  0.8980281439736080  0.0833333333333333
  0.6019718560263915  0.8980281439736081  0.7500000000000001
 -0.0000000000000000  0.0000000000000000  0.4999999999999999
 -0.0000000000000000  0.0000000000000000  0.8333333333333335
  0.0000000000000000  0.4999999999999999  0.1666666666666667
  0.0000000000000000  0.4999999999999999  0.4999999999999999
  0.4999999999999999  0.4999999999999999  0.1666666666666667
  0.4999999999999999  0.0000000000000001  0.1666666666666667
  0.4999999999999999  0.0000000000000001  0.4999999999999999
  0.4999999999999999  0.0000000000000001  0.8333333333333335
 -0.0000000000000000  0.0000000000000000  0.1666666666666667
  0.0000000000000000  0.4999999999999999  0.8333333333333335
  0.4999999999999999  0.4999999999999999  0.6666666666666666
 -0.0000000000000000  0.0000000000000000  0.0000000000000000
  0.4999999999999999  0.4999999999999999  0.0000000000000000
  0.4999999999999999  0.0000000000000001  0.6666666666666666
  0.4999999999999999  0.0000000000000001  0.3333333333333333
  0.4999999999999999  0.0000000000000001  0.0000000000000000
  0.0000000000000000  0.4999999999999999  0.6666666666666666
  0.0000000000000000  0.4999999999999999  0.3333333333333333
  0.0000000000000000  0.4999999999999999  0.0000000000000000
 -0.0000000000000000  0.0000000000000000  0.6666666666666666
 -0.0000000000000000  0.0000000000000000  0.3333333333333333
  0.4999999999999999  0.4999999999999999  0.4999999999999999
  0.4999999999999999  0.4999999999999999  0.3333333333333333
  0.4999999999999999  0.4999999999999999  0.8333333333333335
